c Generated from Nested-Unit Petri Net model NUPN2/0445.nupn
c (C) 2020 Pierre Bouvier and Hubert Garavel at INRIA Grenoble Rhône-Alpes
c Produced by the CONVECS research team (http://convecs.inria.fr)
c Licensed under CC-BY Creative Commons Attribution 4.0 International License
c (license terms available from http://creativecommons.org/licenses/by/4.0)
p cnf 228 3437
1 0
5 6 0
9 10 11 0
13 14 15 16 0
17 18 19 20 0
21 22 23 24 0
25 26 27 28 0
29 30 31 32 0
33 34 35 36 0
37 38 39 40 0
41 42 43 44 0
45 46 47 48 0
49 50 51 52 0
53 54 55 56 0
57 58 59 60 0
61 62 63 64 0
65 66 67 68 0
69 70 71 72 0
73 74 75 76 0
77 78 79 80 0
81 82 83 84 0
85 86 87 88 0
89 90 91 92 0
93 94 95 96 0
97 98 99 100 0
101 102 103 104 0
105 106 107 108 0
109 110 111 112 0
113 114 115 116 0
117 118 119 120 0
121 122 123 124 0
125 126 127 128 0
129 130 131 132 0
133 134 135 136 0
137 138 139 140 0
141 142 143 144 0
145 146 147 148 0
149 150 151 152 0
153 154 155 156 0
157 158 159 160 0
161 162 163 164 0
165 166 167 168 0
169 170 171 172 0
173 174 175 176 0
177 178 179 180 0
181 182 183 184 0
185 186 187 188 0
189 190 191 192 0
193 194 195 196 0
197 198 199 200 0
201 202 203 204 0
205 206 207 208 0
209 210 211 212 0
213 214 215 216 0
217 218 219 220 0
221 222 223 224 0
225 226 227 228 0
-101 -185 0
-102 -186 0
-103 -187 0
-104 -188 0
-125 -213 0
-126 -214 0
-127 -215 0
-128 -216 0
-85 -225 0
-86 -226 0
-87 -227 0
-88 -228 0
-113 -197 0
-114 -198 0
-115 -199 0
-116 -200 0
-9 -137 0
-10 -138 0
-11 -139 0
-12 -140 0
-105 -181 0
-106 -182 0
-107 -183 0
-108 -184 0
-129 -217 0
-130 -218 0
-131 -219 0
-132 -220 0
-117 -161 0
-118 -162 0
-119 -163 0
-120 -164 0
-109 -161 0
-110 -162 0
-111 -163 0
-112 -164 0
-133 -205 0
-134 -206 0
-135 -207 0
-136 -208 0
-125 -173 0
-126 -174 0
-127 -175 0
-128 -176 0
-121 -173 0
-122 -174 0
-123 -175 0
-124 -176 0
-17 -225 0
-18 -226 0
-19 -227 0
-20 -228 0
-113 -173 0
-114 -174 0
-115 -175 0
-116 -176 0
-137 -161 0
-138 -162 0
-139 -163 0
-140 -164 0
-129 -161 0
-130 -162 0
-131 -163 0
-132 -164 0
-61 -185 0
-62 -186 0
-63 -187 0
-64 -188 0
-21 -213 0
-22 -214 0
-23 -215 0
-24 -216 0
-117 -201 0
-118 -202 0
-119 -203 0
-120 -204 0
-133 -181 0
-134 -182 0
-135 -183 0
-136 -184 0
-65 -181 0
-66 -182 0
-67 -183 0
-68 -184 0
-25 -217 0
-26 -218 0
-27 -219 0
-28 -220 0
-161 -225 0
-162 -226 0
-163 -227 0
-164 -228 0
-41 -189 0
-42 -190 0
-43 -191 0
-44 -192 0
-69 -177 0
-70 -178 0
-71 -179 0
-72 -180 0
-149 -157 0
-150 -158 0
-151 -159 0
-152 -160 0
-1 -109 0
-2 -110 0
-3 -111 0
-4 -112 0
-5 -105 0
-6 -106 0
-7 -107 0
-8 -108 0
-93 -205 0
-94 -206 0
-95 -207 0
-96 -208 0
-53 -169 0
-54 -170 0
-55 -171 0
-56 -172 0
-1 -213 0
-2 -214 0
-3 -215 0
-4 -216 0
-97 -193 0
-98 -194 0
-99 -195 0
-100 -196 0
-73 -153 0
-74 -154 0
-75 -155 0
-76 -156 0
-5 -209 0
-6 -210 0
-7 -211 0
-8 -212 0
-101 -213 0
-102 -214 0
-103 -215 0
-104 -216 0
-85 -189 0
-86 -190 0
-87 -191 0
-88 -192 0
-9 -157 0
-10 -158 0
-11 -159 0
-12 -160 0
-105 -153 0
-106 -154 0
-107 -155 0
-108 -156 0
-1 -157 0
-2 -158 0
-3 -159 0
-4 -160 0
-89 -209 0
-90 -210 0
-91 -211 0
-92 -212 0
-5 -185 0
-6 -186 0
-7 -187 0
-8 -188 0
-85 -165 0
-86 -166 0
-87 -167 0
-88 -168 0
-137 -181 0
-138 -182 0
-139 -183 0
-140 -184 0
-33 -153 0
-34 -154 0
-35 -155 0
-36 -156 0
-21 -161 0
-22 -162 0
-23 -163 0
-24 -164 0
-141 -161 0
-142 -162 0
-143 -163 0
-144 -164 0
-133 -161 0
-134 -162 0
-135 -163 0
-136 -164 0
-65 -153 0
-66 -154 0
-67 -155 0
-68 -156 0
-25 -173 0
-26 -174 0
-27 -175 0
-28 -176 0
-121 -201 0
-122 -202 0
-123 -203 0
-124 -204 0
-145 -173 0
-146 -174 0
-147 -175 0
-148 -176 0
-41 -161 0
-42 -162 0
-43 -163 0
-44 -164 0
-137 -205 0
-138 -206 0
-139 -207 0
-140 -208 0
-165 -225 0
-166 -226 0
-167 -227 0
-168 -228 0
-45 -197 0
-46 -198 0
-47 -199 0
-48 -200 0
-141 -217 0
-142 -218 0
-143 -219 0
-144 -220 0
-65 -225 0
-66 -226 0
-67 -227 0
-68 -228 0
-49 -201 0
-50 -202 0
-51 -203 0
-52 -204 0
-145 -213 0
-146 -214 0
-147 -215 0
-148 -216 0
-1 -81 0
-2 -82 0
-3 -83 0
-4 -84 0
-5 -69 0
-6 -70 0
-7 -71 0
-8 -72 0
-53 -197 0
-54 -198 0
-55 -199 0
-56 -200 0
-9 -41 0
-10 -42 0
-11 -43 0
-12 -44 0
-1 -57 0
-2 -58 0
-3 -59 0
-4 -60 0
-57 -169 0
-58 -170 0
-59 -171 0
-60 -172 0
-73 -173 0
-74 -174 0
-75 -175 0
-76 -176 0
-5 -45 0
-6 -46 0
-7 -47 0
-8 -48 0
-101 -193 0
-102 -194 0
-103 -195 0
-104 -196 0
-77 -185 0
-78 -186 0
-79 -187 0
-80 -188 0
-9 -65 0
-10 -66 0
-11 -67 0
-12 -68 0
-1 -129 0
-2 -130 0
-3 -131 0
-4 -132 0
-89 -197 0
-90 -198 0
-91 -199 0
-92 -200 0
-81 -181 0
-82 -182 0
-83 -183 0
-84 -184 0
-13 -165 0
-14 -166 0
-15 -167 0
-16 -168 0
-5 -149 0
-6 -150 0
-7 -151 0
-8 -152 0
-29 -177 0
-30 -178 0
-31 -179 0
-32 -180 0
-85 -177 0
-86 -178 0
-87 -179 0
-88 -180 0
-17 -169 0
-18 -170 0
-19 -171 0
-20 -172 0
-9 -217 0
-10 -218 0
-11 -219 0
-12 -220 0
-33 -157 0
-34 -158 0
-35 -159 0
-36 -160 0
-89 -157 0
-90 -158 0
-91 -159 0
-92 -160 0
-13 -189 0
-14 -190 0
-15 -191 0
-16 -192 0
-37 -185 0
-38 -186 0
-39 -187 0
-40 -188 0
-29 -201 0
-30 -202 0
-31 -203 0
-32 -204 0
-121 -221 0
-122 -222 0
-123 -223 0
-124 -224 0
-17 -209 0
-18 -210 0
-19 -211 0
-20 -212 0
-41 -181 0
-42 -182 0
-43 -183 0
-44 -184 0
-33 -197 0
-34 -198 0
-35 -199 0
-36 -200 0
-61 -201 0
-62 -202 0
-63 -203 0
-64 -204 0
-45 -161 0
-46 -162 0
-47 -163 0
-48 -164 0
-65 -197 0
-66 -198 0
-67 -199 0
-68 -200 0
-49 -173 0
-50 -174 0
-51 -175 0
-52 -176 0
-69 -225 0
-70 -226 0
-71 -227 0
-72 -228 0
-153 -225 0
-154 -226 0
-155 -227 0
-156 -228 0
-53 -209 0
-54 -210 0
-55 -211 0
-56 -212 0
-57 -189 0
-58 -190 0
-59 -191 0
-60 -192 0
-73 -209 0
-74 -210 0
-75 -211 0
-76 -212 0
-5 -25 0
-6 -26 0
-7 -27 0
-8 -28 0
-101 -221 0
-102 -222 0
-103 -223 0
-104 -224 0
-93 -157 0
-94 -158 0
-95 -159 0
-96 -160 0
-77 -213 0
-78 -214 0
-79 -215 0
-80 -216 0
-9 -85 0
-10 -86 0
-11 -87 0
-12 -88 0
-105 -209 0
-106 -210 0
-107 -211 0
-108 -212 0
-81 -217 0
-82 -218 0
-83 -219 0
-84 -220 0
-109 -213 0
-110 -214 0
-111 -215 0
-112 -216 0
-5 -129 0
-6 -130 0
-7 -131 0
-8 -132 0
-125 -193 0
-126 -194 0
-127 -195 0
-128 -196 0
-113 -217 0
-114 -218 0
-115 -219 0
-116 -220 0
-105 -169 0
-106 -170 0
-107 -171 0
-108 -172 0
-109 -173 0
-110 -174 0
-111 -175 0
-112 -176 0
-41 -153 0
-42 -154 0
-43 -155 0
-44 -156 0
-61 -165 0
-62 -166 0
-63 -167 0
-64 -168 0
-37 -189 0
-38 -190 0
-39 -191 0
-40 -192 0
-65 -169 0
-66 -170 0
-67 -171 0
-68 -172 0
-25 -221 0
-26 -222 0
-27 -223 0
-28 -224 0
-145 -221 0
-146 -222 0
-147 -223 0
-148 -224 0
-69 -189 0
-70 -190 0
-71 -191 0
-72 -192 0
-149 -217 0
-150 -218 0
-151 -219 0
-152 -220 0
-1 -97 0
-2 -98 0
-3 -99 0
-4 -100 0
-57 -225 0
-58 -226 0
-59 -227 0
-60 -228 0
-5 -117 0
-6 -118 0
-7 -119 0
-8 -120 0
-93 -185 0
-94 -186 0
-95 -187 0
-96 -188 0
-9 -121 0
-10 -122 0
-11 -123 0
-12 -124 0
-1 -201 0
-2 -202 0
-3 -203 0
-4 -204 0
-97 -181 0
-98 -182 0
-99 -183 0
-100 -184 0
-57 -153 0
-58 -154 0
-59 -155 0
-60 -156 0
-81 -189 0
-82 -190 0
-83 -191 0
-84 -192 0
-201 -225 0
-202 -226 0
-203 -227 0
-204 -228 0
-5 -221 0
-6 -222 0
-7 -223 0
-8 -224 0
-101 -177 0
-102 -178 0
-103 -179 0
-104 -180 0
-113 -189 0
-114 -190 0
-115 -191 0
-116 -192 0
-9 -145 0
-10 -146 0
-11 -147 0
-12 -148 0
-129 -209 0
-130 -210 0
-131 -211 0
-132 -212 0
-117 -185 0
-118 -186 0
-119 -187 0
-120 -188 0
-109 -169 0
-110 -170 0
-111 -171 0
-112 -172 0
-133 -197 0
-134 -198 0
-135 -199 0
-136 -200 0
-125 -181 0
-126 -182 0
-127 -183 0
-128 -184 0
-121 -181 0
-122 -182 0
-123 -183 0
-124 -184 0
-17 -153 0
-18 -154 0
-19 -155 0
-20 -156 0
-113 -165 0
-114 -166 0
-115 -167 0
-116 -168 0
-137 -169 0
-138 -170 0
-139 -171 0
-140 -172 0
-129 -185 0
-130 -186 0
-131 -187 0
-132 -188 0
-21 -205 0
-22 -206 0
-23 -207 0
-24 -208 0
-117 -193 0
-118 -194 0
-119 -195 0
-120 -196 0
-141 -173 0
-142 -174 0
-143 -175 0
-144 -176 0
-133 -173 0
-134 -174 0
-135 -175 0
-136 -176 0
-65 -173 0
-66 -174 0
-67 -175 0
-68 -176 0
-25 -193 0
-26 -194 0
-27 -195 0
-28 -196 0
-121 -205 0
-122 -206 0
-123 -207 0
-124 -208 0
-41 -197 0
-42 -198 0
-43 -199 0
-44 -200 0
-137 -193 0
-138 -194 0
-139 -195 0
-140 -196 0
-69 -169 0
-70 -170 0
-71 -171 0
-72 -172 0
-149 -181 0
-150 -182 0
-151 -183 0
-152 -184 0
-45 -209 0
-46 -210 0
-47 -211 0
-48 -212 0
-49 -221 0
-50 -222 0
-51 -223 0
-52 -224 0
-1 -69 0
-2 -70 0
-3 -71 0
-4 -72 0
-5 -97 0
-6 -98 0
-7 -99 0
-8 -100 0
-93 -213 0
-94 -214 0
-95 -215 0
-96 -216 0
-53 -161 0
-54 -162 0
-55 -163 0
-56 -164 0
-9 -13 0
-10 -14 0
-11 -15 0
-12 -16 0
-1 -205 0
-2 -206 0
-3 -207 0
-4 -208 0
-97 -217 0
-98 -218 0
-99 -219 0
-100 -220 0
-57 -173 0
-58 -174 0
-59 -175 0
-60 -176 0
-81 -225 0
-82 -226 0
-83 -227 0
-84 -228 0
-73 -161 0
-74 -162 0
-75 -163 0
-76 -164 0
-5 -201 0
-6 -202 0
-7 -203 0
-8 -204 0
-101 -205 0
-102 -206 0
-103 -207 0
-104 -208 0
-205 -225 0
-206 -226 0
-207 -227 0
-208 -228 0
-85 -213 0
-86 -214 0
-87 -215 0
-88 -216 0
-9 -165 0
-10 -166 0
-11 -167 0
-12 -168 0
-105 -225 0
-106 -226 0
-107 -227 0
-108 -228 0
-1 -181 0
-2 -182 0
-3 -183 0
-4 -184 0
-89 -217 0
-90 -218 0
-91 -219 0
-92 -220 0
-13 -177 0
-14 -178 0
-15 -179 0
-16 -180 0
-5 -177 0
-6 -178 0
-7 -179 0
-8 -180 0
-29 -157 0
-30 -158 0
-31 -159 0
-32 -160 0
-85 -157 0
-86 -158 0
-87 -159 0
-88 -160 0
-9 -189 0
-10 -190 0
-11 -191 0
-12 -192 0
-89 -177 0
-90 -178 0
-91 -179 0
-92 -180 0
-21 -185 0
-22 -186 0
-23 -187 0
-24 -188 0
-117 -221 0
-118 -222 0
-119 -223 0
-120 -224 0
-141 -169 0
-142 -170 0
-143 -171 0
-144 -172 0
-133 -153 0
-134 -154 0
-135 -155 0
-136 -156 0
-25 -181 0
-26 -182 0
-27 -183 0
-28 -184 0
-145 -165 0
-146 -166 0
-147 -167 0
-148 -168 0
-41 -169 0
-42 -170 0
-43 -171 0
-44 -172 0
-137 -213 0
-138 -214 0
-139 -215 0
-140 -216 0
-45 -173 0
-46 -174 0
-47 -175 0
-48 -176 0
-141 -193 0
-142 -194 0
-143 -195 0
-144 -196 0
-49 -193 0
-50 -194 0
-51 -195 0
-52 -196 0
-145 -205 0
-146 -206 0
-147 -207 0
-148 -208 0
-5 -61 0
-6 -62 0
-7 -63 0
-8 -64 0
-53 -189 0
-54 -190 0
-55 -191 0
-56 -192 0
-9 -49 0
-10 -50 0
-11 -51 0
-12 -52 0
-1 -49 0
-2 -50 0
-3 -51 0
-4 -52 0
-97 -221 0
-98 -222 0
-99 -223 0
-100 -224 0
-57 -209 0
-58 -210 0
-59 -211 0
-60 -212 0
-73 -181 0
-74 -182 0
-75 -183 0
-76 -184 0
-5 -37 0
-6 -38 0
-7 -39 0
-8 -40 0
-77 -161 0
-78 -162 0
-79 -163 0
-80 -164 0
-9 -73 0
-10 -74 0
-11 -75 0
-12 -76 0
-1 -153 0
-2 -154 0
-3 -155 0
-4 -156 0
-81 -173 0
-82 -174 0
-83 -175 0
-84 -176 0
-109 -225 0
-110 -226 0
-111 -227 0
-112 -228 0
-5 -141 0
-6 -142 0
-7 -143 0
-8 -144 0
-29 -185 0
-30 -186 0
-31 -187 0
-32 -188 0
-17 -161 0
-18 -162 0
-19 -163 0
-20 -164 0
-9 -225 0
-10 -226 0
-11 -227 0
-12 -228 0
-33 -181 0
-34 -182 0
-35 -183 0
-36 -184 0
-129 -225 0
-130 -226 0
-131 -227 0
-132 -228 0
-89 -165 0
-90 -166 0
-91 -167 0
-92 -168 0
-13 -197 0
-14 -198 0
-15 -199 0
-16 -200 0
-37 -177 0
-38 -178 0
-39 -179 0
-40 -180 0
-29 -209 0
-30 -210 0
-31 -211 0
-32 -212 0
-25 -153 0
-26 -154 0
-27 -155 0
-28 -156 0
-17 -201 0
-18 -202 0
-19 -203 0
-20 -204 0
-33 -189 0
-34 -190 0
-35 -191 0
-36 -192 0
-61 -209 0
-62 -210 0
-63 -211 0
-64 -212 0
-21 -221 0
-22 -222 0
-23 -223 0
-24 -224 0
-45 -169 0
-46 -170 0
-47 -171 0
-48 -172 0
-141 -221 0
-142 -222 0
-143 -223 0
-144 -224 0
-37 -217 0
-38 -218 0
-39 -219 0
-40 -220 0
-65 -189 0
-66 -190 0
-67 -191 0
-68 -192 0
-49 -165 0
-50 -166 0
-51 -167 0
-52 -168 0
-69 -217 0
-70 -218 0
-71 -219 0
-72 -220 0
-149 -197 0
-150 -198 0
-151 -199 0
-152 -200 0
-1 -21 0
-2 -22 0
-3 -23 0
-4 -24 0
-57 -197 0
-58 -198 0
-59 -199 0
-60 -200 0
-73 -217 0
-74 -218 0
-75 -219 0
-76 -220 0
-5 -17 0
-6 -18 0
-7 -19 0
-8 -20 0
-93 -165 0
-94 -166 0
-95 -167 0
-96 -168 0
-77 -189 0
-78 -190 0
-79 -191 0
-80 -192 0
-9 -93 0
-10 -94 0
-11 -95 0
-12 -96 0
-105 -217 0
-106 -218 0
-107 -219 0
-108 -220 0
-1 -221 0
-2 -222 0
-3 -223 0
-4 -224 0
-97 -169 0
-98 -170 0
-99 -171 0
-100 -172 0
-81 -209 0
-82 -210 0
-83 -211 0
-84 -212 0
-109 -189 0
-110 -190 0
-111 -191 0
-112 -192 0
-125 -201 0
-126 -202 0
-127 -203 0
-128 -204 0
-113 -209 0
-114 -210 0
-115 -211 0
-116 -212 0
-105 -177 0
-106 -178 0
-107 -179 0
-108 -180 0
-129 -197 0
-130 -198 0
-131 -199 0
-132 -200 0
-117 -165 0
-118 -166 0
-119 -167 0
-120 -168 0
-13 -225 0
-14 -226 0
-15 -227 0
-16 -228 0
-109 -181 0
-110 -182 0
-111 -183 0
-112 -184 0
-133 -225 0
-134 -226 0
-135 -227 0
-136 -228 0
-125 -161 0
-126 -162 0
-127 -163 0
-128 -164 0
-113 -185 0
-114 -186 0
-115 -187 0
-116 -188 0
-33 -225 0
-34 -226 0
-35 -227 0
-36 -228 0
-61 -173 0
-62 -174 0
-63 -175 0
-64 -176 0
-21 -201 0
-22 -202 0
-23 -203 0
-24 -204 0
-157 -225 0
-158 -226 0
-159 -227 0
-160 -228 0
-141 -153 0
-142 -154 0
-143 -155 0
-144 -156 0
-65 -161 0
-66 -162 0
-67 -163 0
-68 -164 0
-69 -181 0
-70 -182 0
-71 -183 0
-72 -184 0
-149 -209 0
-150 -210 0
-151 -211 0
-152 -212 0
-45 -221 0
-46 -222 0
-47 -223 0
-48 -224 0
-1 -121 0
-2 -122 0
-3 -123 0
-4 -124 0
-5 -109 0
-6 -110 0
-7 -111 0
-8 -112 0
-93 -193 0
-94 -194 0
-95 -195 0
-96 -196 0
-1 -193 0
-2 -194 0
-3 -195 0
-4 -196 0
-97 -173 0
-98 -174 0
-99 -175 0
-100 -176 0
-5 -213 0
-6 -214 0
-7 -215 0
-8 -216 0
-101 -169 0
-102 -170 0
-103 -171 0
-104 -172 0
-9 -153 0
-10 -154 0
-11 -155 0
-12 -156 0
-1 -169 0
-2 -170 0
-3 -171 0
-4 -172 0
-89 -221 0
-90 -222 0
-91 -223 0
-92 -224 0
-117 -177 0
-118 -178 0
-119 -179 0
-120 -180 0
-133 -189 0
-134 -190 0
-135 -191 0
-136 -192 0
-121 -157 0
-122 -158 0
-123 -159 0
-124 -160 0
-113 -157 0
-114 -158 0
-115 -159 0
-116 -160 0
-137 -177 0
-138 -178 0
-139 -179 0
-140 -180 0
-129 -177 0
-130 -178 0
-131 -179 0
-132 -180 0
-21 -165 0
-22 -166 0
-23 -167 0
-24 -168 0
-117 -217 0
-118 -218 0
-119 -219 0
-120 -220 0
-141 -181 0
-142 -182 0
-143 -183 0
-144 -184 0
-37 -225 0
-38 -226 0
-39 -227 0
-40 -228 0
-133 -165 0
-134 -166 0
-135 -167 0
-136 -168 0
-25 -201 0
-26 -202 0
-27 -203 0
-28 -204 0
-121 -213 0
-122 -214 0
-123 -215 0
-124 -216 0
-145 -185 0
-146 -186 0
-147 -187 0
-148 -188 0
-41 -205 0
-42 -206 0
-43 -207 0
-44 -208 0
-137 -201 0
-138 -202 0
-139 -203 0
-140 -204 0
-69 -161 0
-70 -162 0
-71 -163 0
-72 -164 0
-61 -225 0
-62 -226 0
-63 -227 0
-64 -228 0
-149 -173 0
-150 -174 0
-151 -175 0
-152 -176 0
-45 -217 0
-46 -218 0
-47 -219 0
-48 -220 0
-141 -205 0
-142 -206 0
-143 -207 0
-144 -208 0
-49 -213 0
-50 -214 0
-51 -215 0
-52 -216 0
-177 -225 0
-178 -226 0
-179 -227 0
-180 -228 0
-1 -61 0
-2 -62 0
-3 -63 0
-4 -64 0
-5 -89 0
-6 -90 0
-7 -91 0
-8 -92 0
-93 -221 0
-94 -222 0
-95 -223 0
-96 -224 0
-53 -185 0
-54 -186 0
-55 -187 0
-56 -188 0
-9 -21 0
-10 -22 0
-11 -23 0
-12 -24 0
-1 -37 0
-2 -38 0
-3 -39 0
-4 -40 0
-97 -209 0
-98 -210 0
-99 -211 0
-100 -212 0
-57 -181 0
-58 -182 0
-59 -183 0
-60 -184 0
-73 -169 0
-74 -170 0
-75 -171 0
-76 -172 0
-5 -193 0
-6 -194 0
-7 -195 0
-8 -196 0
-101 -197 0
-102 -198 0
-103 -199 0
-104 -200 0
-85 -205 0
-86 -206 0
-87 -207 0
-88 -208 0
-77 -173 0
-78 -174 0
-79 -175 0
-80 -176 0
-9 -173 0
-10 -174 0
-11 -175 0
-12 -176 0
-1 -173 0
-2 -174 0
-3 -175 0
-4 -176 0
-89 -193 0
-90 -194 0
-91 -195 0
-92 -196 0
-13 -185 0
-14 -186 0
-15 -187 0
-16 -188 0
-5 -169 0
-6 -170 0
-7 -171 0
-8 -172 0
-29 -165 0
-30 -166 0
-31 -167 0
-32 -168 0
-125 -153 0
-126 -154 0
-127 -155 0
-128 -156 0
-85 -181 0
-86 -182 0
-87 -183 0
-88 -184 0
-17 -181 0
-18 -182 0
-19 -183 0
-20 -184 0
-9 -197 0
-10 -198 0
-11 -199 0
-12 -200 0
-33 -169 0
-34 -170 0
-35 -171 0
-36 -172 0
-89 -185 0
-90 -186 0
-91 -187 0
-92 -188 0
-21 -177 0
-22 -178 0
-23 -179 0
-24 -180 0
-13 -209 0
-14 -210 0
-15 -211 0
-16 -212 0
-29 -189 0
-30 -190 0
-31 -191 0
-32 -192 0
-25 -157 0
-26 -158 0
-27 -159 0
-28 -160 0
-145 -157 0
-146 -158 0
-147 -159 0
-148 -160 0
-41 -177 0
-42 -178 0
-43 -179 0
-44 -180 0
-137 -221 0
-138 -222 0
-139 -223 0
-140 -224 0
-61 -189 0
-62 -190 0
-63 -191 0
-64 -192 0
-149 -153 0
-150 -154 0
-151 -155 0
-152 -156 0
-45 -181 0
-46 -182 0
-47 -183 0
-48 -184 0
-141 -201 0
-142 -202 0
-143 -203 0
-144 -204 0
-49 -185 0
-50 -186 0
-51 -187 0
-52 -188 0
-145 -197 0
-146 -198 0
-147 -199 0
-148 -200 0
-149 -225 0
-150 -226 0
-151 -227 0
-152 -228 0
-53 -213 0
-54 -214 0
-55 -215 0
-56 -216 0
-9 -57 0
-10 -58 0
-11 -59 0
-12 -60 0
-57 -217 0
-58 -218 0
-59 -219 0
-60 -220 0
-73 -189 0
-74 -190 0
-75 -191 0
-76 -192 0
-5 -29 0
-6 -30 0
-7 -31 0
-8 -32 0
-77 -169 0
-78 -170 0
-79 -171 0
-80 -172 0
-9 -81 0
-10 -82 0
-11 -83 0
-12 -84 0
-105 -189 0
-106 -190 0
-107 -191 0
-108 -192 0
-1 -145 0
-2 -146 0
-3 -147 0
-4 -148 0
-81 -165 0
-82 -166 0
-83 -167 0
-84 -168 0
-5 -133 0
-6 -134 0
-7 -135 0
-8 -136 0
-101 -153 0
-102 -154 0
-103 -155 0
-104 -156 0
-33 -173 0
-34 -174 0
-35 -175 0
-36 -176 0
-37 -169 0
-38 -170 0
-39 -171 0
-40 -172 0
-29 -217 0
-30 -218 0
-31 -219 0
-32 -220 0
-17 -193 0
-18 -194 0
-19 -195 0
-20 -196 0
-33 -213 0
-34 -214 0
-35 -215 0
-36 -216 0
-61 -217 0
-62 -218 0
-63 -219 0
-64 -220 0
-37 -209 0
-38 -210 0
-39 -211 0
-40 -212 0
-65 -213 0
-66 -214 0
-67 -215 0
-68 -216 0
-49 -157 0
-50 -158 0
-51 -159 0
-52 -160 0
-41 -221 0
-42 -222 0
-43 -223 0
-44 -224 0
-69 -209 0
-70 -210 0
-71 -211 0
-72 -212 0
-149 -189 0
-150 -190 0
-151 -191 0
-152 -192 0
-53 -225 0
-54 -226 0
-55 -227 0
-56 -228 0
-1 -13 0
-2 -14 0
-3 -15 0
-4 -16 0
-73 -225 0
-74 -226 0
-75 -227 0
-76 -228 0
-93 -173 0
-94 -174 0
-95 -175 0
-96 -176 0
-77 -197 0
-78 -198 0
-79 -199 0
-80 -200 0
-9 -101 0
-10 -102 0
-11 -103 0
-12 -104 0
-97 -161 0
-98 -162 0
-99 -163 0
-100 -164 0
-81 -201 0
-82 -202 0
-83 -203 0
-84 -204 0
-109 -197 0
-110 -198 0
-111 -199 0
-112 -200 0
-101 -181 0
-102 -182 0
-103 -183 0
-104 -184 0
-125 -209 0
-126 -210 0
-127 -211 0
-128 -212 0
-85 -221 0
-86 -222 0
-87 -223 0
-88 -224 0
-113 -201 0
-114 -202 0
-115 -203 0
-116 -204 0
-9 -125 0
-10 -126 0
-11 -127 0
-12 -128 0
-105 -185 0
-106 -186 0
-107 -187 0
-108 -188 0
-129 -189 0
-130 -190 0
-131 -191 0
-132 -192 0
-117 -157 0
-118 -158 0
-119 -159 0
-120 -160 0
-109 -157 0
-110 -158 0
-111 -159 0
-112 -160 0
-133 -217 0
-134 -218 0
-135 -219 0
-136 -220 0
-125 -169 0
-126 -170 0
-127 -171 0
-128 -172 0
-121 -177 0
-122 -178 0
-123 -179 0
-124 -180 0
-113 -177 0
-114 -178 0
-115 -179 0
-116 -180 0
-129 -165 0
-130 -166 0
-131 -167 0
-132 -168 0
-61 -181 0
-62 -182 0
-63 -183 0
-64 -184 0
-21 -193 0
-22 -194 0
-23 -195 0
-24 -196 0
-117 -197 0
-118 -198 0
-119 -199 0
-120 -200 0
-65 -185 0
-66 -186 0
-67 -187 0
-68 -188 0
-25 -205 0
-26 -206 0
-27 -207 0
-28 -208 0
-41 -193 0
-42 -194 0
-43 -195 0
-44 -196 0
-69 -173 0
-70 -174 0
-71 -175 0
-72 -176 0
-149 -169 0
-150 -170 0
-151 -171 0
-152 -172 0
-1 -113 0
-2 -114 0
-3 -115 0
-4 -116 0
-5 -101 0
-6 -102 0
-7 -103 0
-8 -104 0
-93 -201 0
-94 -202 0
-95 -203 0
-96 -204 0
-53 -165 0
-54 -166 0
-55 -167 0
-56 -168 0
-77 -225 0
-78 -226 0
-79 -227 0
-80 -228 0
-1 -217 0
-2 -218 0
-3 -219 0
-4 -220 0
-97 -197 0
-98 -198 0
-99 -199 0
-100 -200 0
-5 -205 0
-6 -206 0
-7 -207 0
-8 -208 0
-101 -161 0
-102 -162 0
-103 -163 0
-104 -164 0
-85 -201 0
-86 -202 0
-87 -203 0
-88 -204 0
-221 -225 0
-222 -226 0
-223 -227 0
-224 -228 0
-77 -153 0
-78 -154 0
-79 -155 0
-80 -156 0
-9 -161 0
-10 -162 0
-11 -163 0
-12 -164 0
-1 -161 0
-2 -162 0
-3 -163 0
-4 -164 0
-109 -153 0
-110 -154 0
-111 -155 0
-112 -156 0
-5 -181 0
-6 -182 0
-7 -183 0
-8 -184 0
-121 -165 0
-122 -166 0
-123 -167 0
-124 -168 0
-217 -225 0
-218 -226 0
-219 -227 0
-220 -228 0
-137 -185 0
-138 -186 0
-139 -187 0
-140 -188 0
-21 -157 0
-22 -158 0
-23 -159 0
-24 -160 0
-117 -209 0
-118 -210 0
-119 -211 0
-120 -212 0
-141 -157 0
-142 -158 0
-143 -159 0
-144 -160 0
-37 -153 0
-38 -154 0
-39 -155 0
-40 -156 0
-133 -157 0
-134 -158 0
-135 -159 0
-136 -160 0
-25 -177 0
-26 -178 0
-27 -179 0
-28 -180 0
-121 -189 0
-122 -190 0
-123 -191 0
-124 -192 0
-145 -177 0
-146 -178 0
-147 -179 0
-148 -180 0
-41 -213 0
-42 -214 0
-43 -215 0
-44 -216 0
-137 -209 0
-138 -210 0
-139 -211 0
-140 -212 0
-69 -153 0
-70 -154 0
-71 -155 0
-72 -156 0
-45 -193 0
-46 -194 0
-47 -195 0
-48 -196 0
-141 -213 0
-142 -214 0
-143 -215 0
-144 -216 0
-49 -205 0
-50 -206 0
-51 -207 0
-52 -208 0
-145 -217 0
-146 -218 0
-147 -219 0
-148 -220 0
-1 -85 0
-2 -86 0
-3 -87 0
-4 -88 0
-5 -81 0
-6 -82 0
-7 -83 0
-8 -84 0
-53 -177 0
-54 -178 0
-55 -179 0
-56 -180 0
-9 -29 0
-10 -30 0
-11 -31 0
-12 -32 0
-1 -29 0
-2 -30 0
-3 -31 0
-4 -32 0
-57 -157 0
-58 -158 0
-59 -159 0
-60 -160 0
-73 -177 0
-74 -178 0
-75 -179 0
-76 -180 0
-5 -57 0
-6 -58 0
-7 -59 0
-8 -60 0
-101 -189 0
-102 -190 0
-103 -191 0
-104 -192 0
-77 -181 0
-78 -182 0
-79 -183 0
-80 -184 0
-9 -181 0
-10 -182 0
-11 -183 0
-12 -184 0
-1 -133 0
-2 -134 0
-3 -135 0
-4 -136 0
-89 -201 0
-90 -202 0
-91 -203 0
-92 -204 0
-81 -185 0
-82 -186 0
-83 -187 0
-84 -188 0
-13 -161 0
-14 -162 0
-15 -163 0
-16 -164 0
-5 -161 0
-6 -162 0
-7 -163 0
-8 -164 0
-29 -173 0
-30 -174 0
-31 -175 0
-32 -176 0
-125 -225 0
-126 -226 0
-127 -227 0
-128 -228 0
-85 -173 0
-86 -174 0
-87 -175 0
-88 -176 0
-17 -173 0
-18 -174 0
-19 -175 0
-20 -176 0
-9 -205 0
-10 -206 0
-11 -207 0
-12 -208 0
-33 -161 0
-34 -162 0
-35 -163 0
-36 -164 0
-89 -161 0
-90 -162 0
-91 -163 0
-92 -164 0
-13 -217 0
-14 -218 0
-15 -219 0
-16 -220 0
-37 -181 0
-38 -182 0
-39 -183 0
-40 -184 0
-29 -197 0
-30 -198 0
-31 -199 0
-32 -200 0
-25 -165 0
-26 -166 0
-27 -167 0
-28 -168 0
-121 -225 0
-122 -226 0
-123 -227 0
-124 -228 0
-17 -213 0
-18 -214 0
-19 -215 0
-20 -216 0
-41 -185 0
-42 -186 0
-43 -187 0
-44 -188 0
-33 -201 0
-34 -202 0
-35 -203 0
-36 -204 0
-61 -197 0
-62 -198 0
-63 -199 0
-64 -200 0
-45 -157 0
-46 -158 0
-47 -159 0
-48 -160 0
-65 -201 0
-66 -202 0
-67 -203 0
-68 -204 0
-49 -177 0
-50 -178 0
-51 -179 0
-52 -180 0
-145 -189 0
-146 -190 0
-147 -191 0
-148 -192 0
-69 -221 0
-70 -222 0
-71 -223 0
-72 -224 0
-53 -205 0
-54 -206 0
-55 -207 0
-56 -208 0
-57 -193 0
-58 -194 0
-59 -195 0
-60 -196 0
-73 -197 0
-74 -198 0
-75 -199 0
-76 -200 0
-5 -21 0
-6 -22 0
-7 -23 0
-8 -24 0
-93 -153 0
-94 -154 0
-95 -155 0
-96 -156 0
-77 -209 0
-78 -210 0
-79 -211 0
-80 -212 0
-9 -89 0
-10 -90 0
-11 -91 0
-12 -92 0
-105 -197 0
-106 -198 0
-107 -199 0
-108 -200 0
-81 -157 0
-82 -158 0
-83 -159 0
-84 -160 0
-109 -209 0
-110 -210 0
-111 -211 0
-112 -212 0
-5 -125 0
-6 -126 0
-7 -127 0
-8 -128 0
-125 -189 0
-126 -190 0
-127 -191 0
-128 -192 0
-85 -153 0
-86 -154 0
-87 -155 0
-88 -156 0
-113 -221 0
-114 -222 0
-115 -223 0
-116 -224 0
-105 -157 0
-106 -158 0
-107 -159 0
-108 -160 0
-117 -153 0
-118 -154 0
-119 -155 0
-120 -156 0
-37 -161 0
-38 -162 0
-39 -163 0
-40 -164 0
-29 -225 0
-30 -226 0
-31 -227 0
-32 -228 0
-33 -205 0
-34 -206 0
-35 -207 0
-36 -208 0
-61 -161 0
-62 -162 0
-63 -163 0
-64 -164 0
-45 -153 0
-46 -154 0
-47 -155 0
-48 -156 0
-37 -201 0
-38 -202 0
-39 -203 0
-40 -204 0
-65 -205 0
-66 -206 0
-67 -207 0
-68 -208 0
-25 -225 0
-26 -226 0
-27 -227 0
-28 -228 0
-145 -225 0
-146 -226 0
-147 -227 0
-148 -228 0
-69 -201 0
-70 -202 0
-71 -203 0
-72 -204 0
-149 -213 0
-150 -214 0
-151 -215 0
-152 -216 0
-169 -225 0
-170 -226 0
-171 -227 0
-172 -228 0
-1 -101 0
-2 -102 0
-3 -103 0
-4 -104 0
-93 -181 0
-94 -182 0
-95 -183 0
-96 -184 0
-9 -109 0
-10 -110 0
-11 -111 0
-12 -112 0
-97 -185 0
-98 -186 0
-99 -187 0
-100 -188 0
-81 -193 0
-82 -194 0
-83 -195 0
-84 -196 0
-101 -173 0
-102 -174 0
-103 -175 0
-104 -176 0
-125 -217 0
-126 -218 0
-127 -219 0
-128 -220 0
-113 -193 0
-114 -194 0
-115 -195 0
-116 -196 0
-9 -133 0
-10 -134 0
-11 -135 0
-12 -136 0
-129 -213 0
-130 -214 0
-131 -215 0
-132 -216 0
-117 -181 0
-118 -182 0
-119 -183 0
-120 -184 0
-109 -165 0
-110 -166 0
-111 -167 0
-112 -168 0
-133 -209 0
-134 -210 0
-135 -211 0
-136 -212 0
-125 -177 0
-126 -178 0
-127 -179 0
-128 -180 0
-121 -185 0
-122 -186 0
-123 -187 0
-124 -188 0
-17 -221 0
-18 -222 0
-19 -223 0
-20 -224 0
-113 -169 0
-114 -170 0
-115 -171 0
-116 -172 0
-137 -157 0
-138 -158 0
-139 -159 0
-140 -160 0
-129 -157 0
-130 -158 0
-131 -159 0
-132 -160 0
-21 -217 0
-22 -218 0
-23 -219 0
-24 -220 0
-117 -189 0
-118 -190 0
-119 -191 0
-120 -192 0
-133 -185 0
-134 -186 0
-135 -187 0
-136 -188 0
-65 -177 0
-66 -178 0
-67 -179 0
-68 -180 0
-25 -213 0
-26 -214 0
-27 -215 0
-28 -216 0
-121 -209 0
-122 -210 0
-123 -211 0
-124 -212 0
-41 -201 0
-42 -202 0
-43 -203 0
-44 -204 0
-69 -165 0
-70 -166 0
-71 -167 0
-72 -168 0
-149 -161 0
-150 -162 0
-151 -163 0
-152 -164 0
-45 -205 0
-46 -206 0
-47 -207 0
-48 -208 0
-49 -225 0
-50 -226 0
-51 -227 0
-52 -228 0
-173 -225 0
-174 -226 0
-175 -227 0
-176 -228 0
-1 -73 0
-2 -74 0
-3 -75 0
-4 -76 0
-193 -225 0
-194 -226 0
-195 -227 0
-196 -228 0
-5 -93 0
-6 -94 0
-7 -95 0
-8 -96 0
-93 -209 0
-94 -210 0
-95 -211 0
-96 -212 0
-53 -157 0
-54 -158 0
-55 -159 0
-56 -160 0
-9 -17 0
-10 -18 0
-11 -19 0
-12 -20 0
-1 -209 0
-2 -210 0
-3 -211 0
-4 -212 0
-97 -189 0
-98 -190 0
-99 -191 0
-100 -192 0
-57 -177 0
-58 -178 0
-59 -179 0
-60 -180 0
-5 -197 0
-6 -198 0
-7 -199 0
-8 -200 0
-101 -217 0
-102 -218 0
-103 -219 0
-104 -220 0
-85 -193 0
-86 -194 0
-87 -195 0
-88 -196 0
-9 -169 0
-10 -170 0
-11 -171 0
-12 -172 0
-1 -185 0
-2 -186 0
-3 -187 0
-4 -188 0
-89 -205 0
-90 -206 0
-91 -207 0
-92 -208 0
-13 -173 0
-14 -174 0
-15 -175 0
-16 -176 0
-5 -173 0
-6 -174 0
-7 -175 0
-8 -176 0
-29 -153 0
-30 -154 0
-31 -155 0
-32 -156 0
-85 -169 0
-86 -170 0
-87 -171 0
-88 -172 0
-9 -193 0
-10 -194 0
-11 -195 0
-12 -196 0
-61 -153 0
-62 -154 0
-63 -155 0
-64 -156 0
-21 -181 0
-22 -182 0
-23 -183 0
-24 -184 0
-141 -165 0
-142 -166 0
-143 -167 0
-144 -168 0
-25 -185 0
-26 -186 0
-27 -187 0
-28 -188 0
-121 -197 0
-122 -198 0
-123 -199 0
-124 -200 0
-145 -169 0
-146 -170 0
-147 -171 0
-148 -172 0
-41 -157 0
-42 -158 0
-43 -159 0
-44 -160 0
-137 -217 0
-138 -218 0
-139 -219 0
-140 -220 0
-45 -201 0
-46 -202 0
-47 -203 0
-48 -204 0
-141 -189 0
-142 -190 0
-143 -191 0
-144 -192 0
-65 -221 0
-66 -222 0
-67 -223 0
-68 -224 0
-49 -197 0
-50 -198 0
-51 -199 0
-52 -200 0
-145 -209 0
-146 -210 0
-147 -211 0
-148 -212 0
-1 -77 0
-2 -78 0
-3 -79 0
-4 -80 0
-5 -73 0
-6 -74 0
-7 -75 0
-8 -76 0
-197 -225 0
-198 -226 0
-199 -227 0
-200 -228 0
-53 -201 0
-54 -202 0
-55 -203 0
-56 -204 0
-9 -37 0
-10 -38 0
-11 -39 0
-12 -40 0
-1 -53 0
-2 -54 0
-3 -55 0
-4 -56 0
-97 -225 0
-98 -226 0
-99 -227 0
-100 -228 0
-57 -165 0
-58 -166 0
-59 -167 0
-60 -168 0
-73 -185 0
-74 -186 0
-75 -187 0
-76 -188 0
-5 -49 0
-6 -50 0
-7 -51 0
-8 -52 0
-77 -157 0
-78 -158 0
-79 -159 0
-80 -160 0
-9 -61 0
-10 -62 0
-11 -63 0
-12 -64 0
-1 -125 0
-2 -126 0
-3 -127 0
-4 -128 0
-81 -177 0
-82 -178 0
-83 -179 0
-84 -180 0
-13 -169 0
-14 -170 0
-15 -171 0
-16 -172 0
-109 -221 0
-110 -222 0
-111 -223 0
-112 -224 0
-5 -153 0
-6 -154 0
-7 -155 0
-8 -156 0
-29 -181 0
-30 -182 0
-31 -183 0
-32 -184 0
-17 -165 0
-18 -166 0
-19 -167 0
-20 -168 0
-9 -213 0
-10 -214 0
-11 -215 0
-12 -216 0
-33 -185 0
-34 -186 0
-35 -187 0
-36 -188 0
-89 -169 0
-90 -170 0
-91 -171 0
-92 -172 0
-13 -193 0
-14 -194 0
-15 -195 0
-16 -196 0
-37 -173 0
-38 -174 0
-39 -175 0
-40 -176 0
-29 -205 0
-30 -206 0
-31 -207 0
-32 -208 0
-17 -205 0
-18 -206 0
-19 -207 0
-20 -208 0
-33 -193 0
-34 -194 0
-35 -195 0
-36 -196 0
-61 -205 0
-62 -206 0
-63 -207 0
-64 -208 0
-45 -165 0
-46 -166 0
-47 -167 0
-48 -168 0
-37 -213 0
-38 -214 0
-39 -215 0
-40 -216 0
-65 -193 0
-66 -194 0
-67 -195 0
-68 -196 0
-49 -169 0
-50 -170 0
-51 -171 0
-52 -172 0
-69 -213 0
-70 -214 0
-71 -215 0
-72 -216 0
-1 -25 0
-2 -26 0
-3 -27 0
-4 -28 0
-57 -201 0
-58 -202 0
-59 -203 0
-60 -204 0
-73 -205 0
-74 -206 0
-75 -207 0
-76 -208 0
-5 -13 0
-6 -14 0
-7 -15 0
-8 -16 0
-101 -225 0
-102 -226 0
-103 -227 0
-104 -228 0
-93 -161 0
-94 -162 0
-95 -163 0
-96 -164 0
-77 -217 0
-78 -218 0
-79 -219 0
-80 -220 0
-9 -97 0
-10 -98 0
-11 -99 0
-12 -100 0
-105 -205 0
-106 -206 0
-107 -207 0
-108 -208 0
-1 -225 0
-2 -226 0
-3 -227 0
-4 -228 0
-185 -225 0
-186 -226 0
-187 -227 0
-188 -228 0
-81 -213 0
-82 -214 0
-83 -215 0
-84 -216 0
-109 -217 0
-110 -218 0
-111 -219 0
-112 -220 0
-125 -197 0
-126 -198 0
-127 -199 0
-128 -200 0
-113 -213 0
-114 -214 0
-115 -215 0
-116 -216 0
-105 -165 0
-106 -166 0
-107 -167 0
-108 -168 0
-129 -201 0
-130 -202 0
-131 -203 0
-132 -204 0
-13 -221 0
-14 -222 0
-15 -223 0
-16 -224 0
-109 -177 0
-110 -178 0
-111 -179 0
-112 -180 0
-133 -221 0
-134 -222 0
-135 -223 0
-136 -224 0
-125 -157 0
-126 -158 0
-127 -159 0
-128 -160 0
-61 -169 0
-62 -170 0
-63 -171 0
-64 -172 0
-21 -197 0
-22 -198 0
-23 -199 0
-24 -200 0
-37 -193 0
-38 -194 0
-39 -195 0
-40 -196 0
-65 -165 0
-66 -166 0
-67 -167 0
-68 -168 0
-145 -153 0
-146 -154 0
-147 -155 0
-148 -156 0
-69 -193 0
-70 -194 0
-71 -195 0
-72 -196 0
-149 -205 0
-150 -206 0
-151 -207 0
-152 -208 0
-1 -93 0
-2 -94 0
-3 -95 0
-4 -96 0
-57 -221 0
-58 -222 0
-59 -223 0
-60 -224 0
-5 -121 0
-6 -122 0
-7 -123 0
-8 -124 0
-93 -189 0
-94 -190 0
-95 -191 0
-96 -192 0
-53 -153 0
-54 -154 0
-55 -155 0
-56 -156 0
-9 -117 0
-10 -118 0
-11 -119 0
-12 -120 0
-1 -197 0
-2 -198 0
-3 -199 0
-4 -200 0
-97 -177 0
-98 -178 0
-99 -179 0
-100 -180 0
-5 -225 0
-6 -226 0
-7 -227 0
-8 -228 0
-101 -165 0
-102 -166 0
-103 -167 0
-104 -168 0
-9 -141 0
-10 -142 0
-11 -143 0
-12 -144 0
-129 -205 0
-130 -206 0
-131 -207 0
-132 -208 0
-89 -225 0
-90 -226 0
-91 -227 0
-92 -228 0
-117 -173 0
-118 -174 0
-119 -175 0
-120 -176 0
-13 -153 0
-14 -154 0
-15 -155 0
-16 -156 0
-213 -225 0
-214 -226 0
-215 -227 0
-216 -228 0
-133 -201 0
-134 -202 0
-135 -203 0
-136 -204 0
-125 -185 0
-126 -186 0
-127 -187 0
-128 -188 0
-121 -161 0
-122 -162 0
-123 -163 0
-124 -164 0
-113 -161 0
-114 -162 0
-115 -163 0
-116 -164 0
-137 -165 0
-138 -166 0
-139 -167 0
-140 -168 0
-129 -181 0
-130 -182 0
-131 -183 0
-132 -184 0
-21 -209 0
-22 -210 0
-23 -211 0
-24 -212 0
-117 -213 0
-118 -214 0
-119 -215 0
-120 -216 0
-141 -177 0
-142 -178 0
-143 -179 0
-144 -180 0
-37 -221 0
-38 -222 0
-39 -223 0
-40 -224 0
-133 -177 0
-134 -178 0
-135 -179 0
-136 -180 0
-25 -189 0
-26 -190 0
-27 -191 0
-28 -192 0
-121 -217 0
-122 -218 0
-123 -219 0
-124 -220 0
-41 -209 0
-42 -210 0
-43 -211 0
-44 -212 0
-137 -189 0
-138 -190 0
-139 -191 0
-140 -192 0
-69 -157 0
-70 -158 0
-71 -159 0
-72 -160 0
-61 -221 0
-62 -222 0
-63 -223 0
-64 -224 0
-149 -185 0
-150 -186 0
-151 -187 0
-152 -188 0
-45 -213 0
-46 -214 0
-47 -215 0
-48 -216 0
-49 -217 0
-50 -218 0
-51 -219 0
-52 -220 0
-1 -65 0
-2 -66 0
-3 -67 0
-4 -68 0
-5 -85 0
-6 -86 0
-7 -87 0
-8 -88 0
-93 -217 0
-94 -218 0
-95 -219 0
-96 -220 0
-53 -181 0
-54 -182 0
-55 -183 0
-56 -184 0
-9 -25 0
-10 -26 0
-11 -27 0
-12 -28 0
-1 -41 0
-2 -42 0
-3 -43 0
-4 -44 0
-97 -213 0
-98 -214 0
-99 -215 0
-100 -216 0
-57 -185 0
-58 -186 0
-59 -187 0
-60 -188 0
-81 -221 0
-82 -222 0
-83 -223 0
-84 -224 0
-73 -157 0
-74 -158 0
-75 -159 0
-76 -160 0
-5 -189 0
-6 -190 0
-7 -191 0
-8 -192 0
-101 -209 0
-102 -210 0
-103 -211 0
-104 -212 0
-85 -217 0
-86 -218 0
-87 -219 0
-88 -220 0
-9 -177 0
-10 -178 0
-11 -179 0
-12 -180 0
-105 -221 0
-106 -222 0
-107 -223 0
-108 -224 0
-1 -177 0
-2 -178 0
-3 -179 0
-4 -180 0
-89 -213 0
-90 -214 0
-91 -215 0
-92 -216 0
-13 -181 0
-14 -182 0
-15 -183 0
-16 -184 0
-5 -165 0
-6 -166 0
-7 -167 0
-8 -168 0
-29 -161 0
-30 -162 0
-31 -163 0
-32 -164 0
-85 -161 0
-86 -162 0
-87 -163 0
-88 -164 0
-17 -185 0
-18 -186 0
-19 -187 0
-20 -188 0
-9 -201 0
-10 -202 0
-11 -203 0
-12 -204 0
-129 -153 0
-130 -154 0
-131 -155 0
-132 -156 0
-89 -173 0
-90 -174 0
-91 -175 0
-92 -176 0
-21 -173 0
-22 -174 0
-23 -175 0
-24 -176 0
-117 -225 0
-118 -226 0
-119 -227 0
-120 -228 0
-13 -205 0
-14 -206 0
-15 -207 0
-16 -208 0
-25 -161 0
-26 -162 0
-27 -163 0
-28 -164 0
-145 -161 0
-146 -162 0
-147 -163 0
-148 -164 0
-41 -165 0
-42 -166 0
-43 -167 0
-44 -168 0
-137 -225 0
-138 -226 0
-139 -227 0
-140 -228 0
-45 -177 0
-46 -178 0
-47 -179 0
-48 -180 0
-141 -197 0
-142 -198 0
-143 -199 0
-144 -200 0
-49 -189 0
-50 -190 0
-51 -191 0
-52 -192 0
-145 -201 0
-146 -202 0
-147 -203 0
-148 -204 0
-149 -221 0
-150 -222 0
-151 -223 0
-152 -224 0
-5 -65 0
-6 -66 0
-7 -67 0
-8 -68 0
-53 -193 0
-54 -194 0
-55 -195 0
-56 -196 0
-9 -45 0
-10 -46 0
-11 -47 0
-12 -48 0
-1 -45 0
-2 -46 0
-3 -47 0
-4 -48 0
-57 -205 0
-58 -206 0
-59 -207 0
-60 -208 0
-73 -193 0
-74 -194 0
-75 -195 0
-76 -196 0
-5 -41 0
-6 -42 0
-7 -43 0
-8 -44 0
-77 -165 0
-78 -166 0
-79 -167 0
-80 -168 0
-9 -69 0
-10 -70 0
-11 -71 0
-12 -72 0
-105 -193 0
-106 -194 0
-107 -195 0
-108 -196 0
-1 -149 0
-2 -150 0
-3 -151 0
-4 -152 0
-81 -169 0
-82 -170 0
-83 -171 0
-84 -172 0
-5 -145 0
-6 -146 0
-7 -147 0
-8 -148 0
-17 -157 0
-18 -158 0
-19 -159 0
-20 -160 0
-9 -221 0
-10 -222 0
-11 -223 0
-12 -224 0
-33 -177 0
-34 -178 0
-35 -179 0
-36 -180 0
-129 -221 0
-130 -222 0
-131 -223 0
-132 -224 0
-21 -153 0
-22 -154 0
-23 -155 0
-24 -156 0
-13 -201 0
-14 -202 0
-15 -203 0
-16 -204 0
-37 -165 0
-38 -166 0
-39 -167 0
-40 -168 0
-29 -213 0
-30 -214 0
-31 -215 0
-32 -216 0
-17 -197 0
-18 -198 0
-19 -199 0
-20 -200 0
-33 -217 0
-34 -218 0
-35 -219 0
-36 -220 0
-61 -213 0
-62 -214 0
-63 -215 0
-64 -216 0
-21 -225 0
-22 -226 0
-23 -227 0
-24 -228 0
-141 -225 0
-142 -226 0
-143 -227 0
-144 -228 0
-37 -205 0
-38 -206 0
-39 -207 0
-40 -208 0
-65 -217 0
-66 -218 0
-67 -219 0
-68 -220 0
-49 -161 0
-50 -162 0
-51 -163 0
-52 -164 0
-41 -225 0
-42 -226 0
-43 -227 0
-44 -228 0
-69 -205 0
-70 -206 0
-71 -207 0
-72 -208 0
-149 -201 0
-150 -202 0
-151 -203 0
-152 -204 0
-53 -221 0
-54 -222 0
-55 -223 0
-56 -224 0
-1 -17 0
-2 -18 0
-3 -19 0
-4 -20 0
-73 -213 0
-74 -214 0
-75 -215 0
-76 -216 0
-93 -169 0
-94 -170 0
-95 -171 0
-96 -172 0
-77 -193 0
-78 -194 0
-79 -195 0
-80 -196 0
-9 -105 0
-10 -106 0
-11 -107 0
-12 -108 0
-105 -213 0
-106 -214 0
-107 -215 0
-108 -216 0
-97 -165 0
-98 -166 0
-99 -167 0
-100 -168 0
-81 -205 0
-82 -206 0
-83 -207 0
-84 -208 0
-109 -193 0
-110 -194 0
-111 -195 0
-112 -196 0
-125 -205 0
-126 -206 0
-127 -207 0
-128 -208 0
-113 -205 0
-114 -206 0
-115 -207 0
-116 -208 0
-9 -129 0
-10 -130 0
-11 -131 0
-12 -132 0
-105 -173 0
-106 -174 0
-107 -175 0
-108 -176 0
-129 -193 0
-130 -194 0
-131 -195 0
-132 -196 0
-117 -169 0
-118 -170 0
-119 -171 0
-120 -172 0
-109 -185 0
-110 -186 0
-111 -187 0
-112 -188 0
-133 -213 0
-134 -214 0
-135 -215 0
-136 -216 0
-125 -165 0
-126 -166 0
-127 -167 0
-128 -168 0
-113 -181 0
-114 -182 0
-115 -183 0
-116 -184 0
-137 -153 0
-138 -154 0
-139 -155 0
-140 -156 0
-33 -221 0
-34 -222 0
-35 -223 0
-36 -224 0
-129 -169 0
-130 -170 0
-131 -171 0
-132 -172 0
-61 -177 0
-62 -178 0
-63 -179 0
-64 -180 0
-21 -189 0
-22 -190 0
-23 -191 0
-24 -192 0
-65 -157 0
-66 -158 0
-67 -159 0
-68 -160 0
-25 -209 0
-26 -210 0
-27 -211 0
-28 -212 0
-69 -185 0
-70 -186 0
-71 -187 0
-72 -188 0
-149 -165 0
-150 -166 0
-151 -167 0
-152 -168 0
-45 -225 0
-46 -226 0
-47 -227 0
-48 -228 0
-189 -225 0
-190 -226 0
-191 -227 0
-192 -228 0
-1 -117 0
-2 -118 0
-3 -119 0
-4 -120 0
-5 -113 0
-6 -114 0
-7 -115 0
-8 -116 0
-93 -197 0
-94 -198 0
-95 -199 0
-96 -200 0
-77 -221 0
-78 -222 0
-79 -223 0
-80 -224 0
-1 -189 0
-2 -190 0
-3 -191 0
-4 -192 0
-97 -201 0
-98 -202 0
-99 -203 0
-100 -204 0
-5 -217 0
-6 -218 0
-7 -219 0
-8 -220 0
-101 -157 0
-102 -158 0
-103 -159 0
-104 -160 0
-85 -197 0
-86 -198 0
-87 -199 0
-88 -200 0
-9 -149 0
-10 -150 0
-11 -151 0
-12 -152 0
-1 -165 0
-2 -166 0
-3 -167 0
-4 -168 0
-81 -153 0
-82 -154 0
-83 -155 0
-84 -156 0
-133 -193 0
-134 -194 0
-135 -195 0
-136 -196 0
-121 -169 0
-122 -170 0
-123 -171 0
-124 -172 0
-113 -153 0
-114 -154 0
-115 -155 0
-116 -156 0
-137 -173 0
-138 -174 0
-139 -175 0
-140 -176 0
-129 -173 0
-130 -174 0
-131 -175 0
-132 -176 0
-21 -169 0
-22 -170 0
-23 -171 0
-24 -172 0
-117 -205 0
-118 -206 0
-119 -207 0
-120 -208 0
-141 -185 0
-142 -186 0
-143 -187 0
-144 -188 0
-133 -169 0
-134 -170 0
-135 -171 0
-136 -172 0
-25 -197 0
-26 -198 0
-27 -199 0
-28 -200 0
-121 -193 0
-122 -194 0
-123 -195 0
-124 -196 0
-145 -181 0
-146 -182 0
-147 -183 0
-148 -184 0
-41 -217 0
-42 -218 0
-43 -219 0
-44 -220 0
-137 -197 0
-138 -198 0
-139 -199 0
-140 -200 0
-149 -177 0
-150 -178 0
-151 -179 0
-152 -180 0
-45 -189 0
-46 -190 0
-47 -191 0
-48 -192 0
-141 -209 0
-142 -210 0
-143 -211 0
-144 -212 0
-49 -209 0
-50 -210 0
-51 -211 0
-52 -212 0
-1 -89 0
-2 -90 0
-3 -91 0
-4 -92 0
-5 -77 0
-6 -78 0
-7 -79 0
-8 -80 0
-93 -225 0
-94 -226 0
-95 -227 0
-96 -228 0
-53 -173 0
-54 -174 0
-55 -175 0
-56 -176 0
-9 -33 0
-10 -34 0
-11 -35 0
-12 -36 0
-1 -33 0
-2 -34 0
-3 -35 0
-4 -36 0
-97 -205 0
-98 -206 0
-99 -207 0
-100 -208 0
-57 -161 0
-58 -162 0
-59 -163 0
-60 -164 0
-73 -165 0
-74 -166 0
-75 -167 0
-76 -168 0
-5 -53 0
-6 -54 0
-7 -55 0
-8 -56 0
-101 -201 0
-102 -202 0
-103 -203 0
-104 -204 0
-85 -209 0
-86 -210 0
-87 -211 0
-88 -212 0
-77 -177 0
-78 -178 0
-79 -179 0
-80 -180 0
-9 -185 0
-10 -186 0
-11 -187 0
-12 -188 0
-209 -225 0
-210 -226 0
-211 -227 0
-212 -228 0
-1 -137 0
-2 -138 0
-3 -139 0
-4 -140 0
-89 -189 0
-90 -190 0
-91 -191 0
-92 -192 0
-13 -157 0
-14 -158 0
-15 -159 0
-16 -160 0
-5 -157 0
-6 -158 0
-7 -159 0
-8 -160 0
-29 -169 0
-30 -170 0
-31 -171 0
-32 -172 0
-125 -221 0
-126 -222 0
-127 -223 0
-128 -224 0
-85 -185 0
-86 -186 0
-87 -187 0
-88 -188 0
-17 -177 0
-18 -178 0
-19 -179 0
-20 -180 0
-9 -209 0
-10 -210 0
-11 -211 0
-12 -212 0
-33 -165 0
-34 -166 0
-35 -167 0
-36 -168 0
-89 -181 0
-90 -182 0
-91 -183 0
-92 -184 0
-13 -213 0
-14 -214 0
-15 -215 0
-16 -216 0
-29 -193 0
-30 -194 0
-31 -195 0
-32 -196 0
-25 -169 0
-26 -170 0
-27 -171 0
-28 -172 0
-17 -217 0
-18 -218 0
-19 -219 0
-20 -220 0
-41 -173 0
-42 -174 0
-43 -175 0
-44 -176 0
-61 -193 0
-62 -194 0
-63 -195 0
-64 -196 0
-45 -185 0
-46 -186 0
-47 -187 0
-48 -188 0
-49 -181 0
-50 -182 0
-51 -183 0
-52 -184 0
-145 -193 0
-146 -194 0
-147 -195 0
-148 -196 0
-53 -217 0
-54 -218 0
-55 -219 0
-56 -220 0
-9 -53 0
-10 -54 0
-11 -55 0
-12 -56 0
-57 -213 0
-58 -214 0
-59 -215 0
-60 -216 0
-73 -201 0
-74 -202 0
-75 -203 0
-76 -204 0
-5 -33 0
-6 -34 0
-7 -35 0
-8 -36 0
-181 -225 0
-182 -226 0
-183 -227 0
-184 -228 0
-77 -205 0
-78 -206 0
-79 -207 0
-80 -208 0
-9 -77 0
-10 -78 0
-11 -79 0
-12 -80 0
-105 -201 0
-106 -202 0
-107 -203 0
-108 -204 0
-1 -141 0
-2 -142 0
-3 -143 0
-4 -144 0
-97 -153 0
-98 -154 0
-99 -155 0
-100 -156 0
-81 -161 0
-82 -162 0
-83 -163 0
-84 -164 0
-109 -205 0
-110 -206 0
-111 -207 0
-112 -208 0
-5 -137 0
-6 -138 0
-7 -139 0
-8 -140 0
-113 -225 0
-114 -226 0
-115 -227 0
-116 -228 0
-105 -161 0
-106 -162 0
-107 -163 0
-108 -164 0
-89 -153 0
-90 -154 0
-91 -155 0
-92 -156 0
-37 -157 0
-38 -158 0
-39 -159 0
-40 -160 0
-29 -221 0
-30 -222 0
-31 -223 0
-32 -224 0
-121 -153 0
-122 -154 0
-123 -155 0
-124 -156 0
-17 -189 0
-18 -190 0
-19 -191 0
-20 -192 0
-33 -209 0
-34 -210 0
-35 -211 0
-36 -212 0
-61 -157 0
-62 -158 0
-63 -159 0
-64 -160 0
-37 -197 0
-38 -198 0
-39 -199 0
-40 -200 0
-65 -209 0
-66 -210 0
-67 -211 0
-68 -212 0
-49 -153 0
-50 -154 0
-51 -155 0
-52 -156 0
-69 -197 0
-70 -198 0
-71 -199 0
-72 -200 0
-149 -193 0
-150 -194 0
-151 -195 0
-152 -196 0
-1 -105 0
-2 -106 0
-3 -107 0
-4 -108 0
-73 -221 0
-74 -222 0
-75 -223 0
-76 -224 0
-93 -177 0
-94 -178 0
-95 -179 0
-96 -180 0
-77 -201 0
-78 -202 0
-79 -203 0
-80 -204 0
-9 -113 0
-10 -114 0
-11 -115 0
-12 -116 0
-97 -157 0
-98 -158 0
-99 -159 0
-100 -160 0
-81 -197 0
-82 -198 0
-83 -199 0
-84 -200 0
-109 -201 0
-110 -202 0
-111 -203 0
-112 -204 0
